20
5
20603
392 489 152 306 111
false
0.25
7 19 17 32 26 39 1 9 28 12 29 24 28 44 47 31 13 14 34 32
46 28 27 24 13 27 2 5 48 1 48 10 48 29 29 18 50 24 27 38
28 17 46 12 18 23 42 14 6 46 21 43 47 10 19 10 13 44 36 37
48 22 17 30 1 6 6 24 50 14 18 26 28 41 30 39 20 7 50 25
4 39 40 42 33 14 41 46 12 27 7 26 5 11 11 13 13 11 44 22
12 33 58 67 65 4 76 86 44 60 47 90 36 68 20 8 67 88 75 57
0 0 44 0 0 23 0 22 0 91 0 0 0 0 0 0 86 99 0 0
0 0 0 0 0 0 0 0 58 0 36 100 0 35 0 0 61 0 0
0 0 0 0 0 0 0 0 0 0 0 0 67 0 0 0 61 27
0 0 0 0 0 0 0 0 21 0 42 0 92 0 43 0 0
0 0 0 4 0 0 0 0 0 0 0 0 43 87 0 0
0 60 21 0 0 0 0 93 23 0 0 0 0 0 18
0 0 0 0 51 24 0 0 0 0 0 0 0 0
0 29 56 0 0 0 33 90 0 0 94 0 99
0 0 0 57 0 92 59 0 28 0 20 0
0 0 5 0 0 0 0 0 0 70 89
0 60 0 0 49 0 0 0 0 0
0 0 0 32 0 96 0 0 0
0 0 0 0 0 0 75 0
0 0 0 0 0 92 0
0 0 0 0 0 57
0 0 58 0 0
0 53 37 0
0 0 0
0 0
0 0 0 0 0 0 0 0 0 0 72 86 41 0 0 82 0 5 100
0 85 34 66 0 0 0 0 0 0 0 0 54 0 0 77 0 0
0 0 0 0 0 0 0 0 0 0 0 0 0 0 0 54 0
0 0 27 57 0 0 0 44 0 0 0 0 25 0 0 0
0 0 85 0 0 0 15 0 43 0 0 0 0 0 0
0 0 0 85 0 0 0 0 0 35 0 0 0 31
0 0 0 0 0 0 87 0 0 63 0 0 0
0 0 0 0 0 0 0 0 47 96 0 0
0 0 21 0 37 25 46 15 0 23 0
0 25 0 0 0 0 0 0 0 25
0 0 98 0 11 0 0 0 14
0 0 0 0 0 0 0 0
0 0 0 85 0 0 74
0 0 0 0 33 0
0 0 35 0 0
0 0 0 0
0 0 50
0 0
0
0 0 0 0 0 0 0 0 0 0 0 0 0 0 0 0 0 0
0 0 94 0 0 0 44 44 0 0 0 68 0 0 0 0 0
0 0 0 52 0 0 0 0 0 14 0 63 0 0 0 96
0 0 34 79 0 0 0 0 0 0 60 0 0 84 60
0 0 0 0 0 0 0 72 0 0 0 0 0 21
0 0 0 0 0 0 34 0 12 0 0 0 0
0 0 0 0 0 0 0 72 0 0 67 0
0 0 0 13 0 0 0 0 3 0 0
0 0 0 0 0 0 0 0 0 0
0 0 50 0 85 0 10 0 0
0 0 0 0 95 0 71 0
0 0 22 0 0 0 75
0 0 34 0 2 0
0 0 30 17 0
0 0 0 73
0 0 0
0 69
0
0 0 0 0 0 13 0 93 0 0 42 0 0 0 0 0 0
0 0 0 45 0 45 0 13 49 0 95 21 0 64 0 0
0 0 52 95 0 0 0 33 3 0 0 0 12 0 0
0 0 0 6 0 0 0 0 0 0 0 0 0 0
0 0 0 0 0 0 8 0 0 0 0 0 0
0 0 0 31 0 0 0 0 0 0 48 0
0 28 5 0 0 89 0 0 0 0 0
0 89 98 0 0 0 0 0 0 0
0 0 0 0 0 0 0 0 0
0 0 0 30 54 0 49 0
0 7 0 2 0 53 0
0 16 0 83 0 0
0 0 0 73 0
0 0 41 0
0 0 0
0 0
0
0 0 0 46 0 0 0 66 0 0 0 0 0 0 0 0
0 96 0 0 0 14 0 0 52 0 9 0 60 0 0
0 0 0 0 0 0 73 0 0 0 0 0 14 0
0 28 2 0 0 98 0 0 44 84 0 0 0
0 62 54 32 12 0 0 0 0 0 0 0
0 0 0 86 0 0 0 0 92 0 0
0 62 0 0 100 0 0 0 0 0
0 0 0 93 33 0 0 0 13
0 0 0 0 90 40 0 0
0 0 54 0 0 0 72
0 0 0 1 0 49
0 0 0 0 0
0 0 0 54
0 0 0
0 3
0
0 0 0 0 72 22 0 65 0 0 0 0 50 82 45
0 0 29 0 83 0 0 41 0 0 6 73 0 0
0 96 0 0 0 0 0 0 0 0 59 80 0
0 0 59 75 13 0 0 0 0 0 0 0
0 0 0 0 0 8 0 0 0 0 0
0 0 0 0 0 11 0 0 0 0
0 0 0 0 0 10 1 0 0
0 0 0 70 0 0 0 0
0 0 0 0 28 0 0
0 0 52 0 0 89
0 23 27 92 0
0 92 0 0
0 0 25
0 9
0
0 0 0 0 0 0 0 0 90 61 0 0 46 82
0 0 0 13 0 0 0 0 0 0 0 0 0
0 0 0 0 0 38 12 71 0 0 0 0
0 0 0 0 0 0 78 0 0 33 0
0 0 59 39 0 0 0 0 28 0
0 0 0 0 0 49 0 99 0
0 0 14 51 0 0 0 67
0 0 0 0 0 0 0
0 0 0 0 99 0
0 48 0 0 0
0 52 0 0
0 0 0
0 0
0
0 0 89 0 0 49 7 0 0 0 0 0 26
0 0 26 75 0 0 4 0 0 0 0 82
0 0 0 0 55 0 28 0 0 0 0
0 0 59 0 27 0 0 0 0 0
0 0 0 0 0 0 0 0 0
0 0 60 18 0 0 0 0
0 0 64 0 0 0 0
0 0 0 83 0 71
0 0 0 0 0
0 0 16 0
0 0 0
0 51
0
0 57 0 0 0 0 0 0 0 0 0 0
0 38 0 0 0 0 0 77 0 0 0
0 0 0 16 14 0 0 87 0 0
0 0 0 0 0 0 42 0 0
0 0 0 0 0 70 0 2
0 0 0 0 0 0 0
0 0 0 0 22 0
0 0 0 0 0
0 0 0 4
0 0 69
0 0
0
0 47 0 0 0 0 0 0 34 0 0
0 0 0 55 38 57 89 0 0 0
0 0 0 0 0 69 0 94 0
0 0 0 0 0 0 0 0
0 3 34 50 0 0 88
0 0 0 0 0 0
0 72 0 0 0
0 0 1 0
0 0 0
0 0
0
0 0 0 0 12 0 0 0 0 0
0 52 0 0 0 0 0 96 0
0 0 0 57 57 0 0 42
0 74 0 0 0 0 0
0 0 0 76 78 86
0 0 12 0 0
0 0 0 0
0 0 0
0 0
0
0 0 0 0 0 0 71 78 0
0 0 0 0 11 28 0 0
0 0 0 0 0 0 53
0 0 0 0 57 0
0 0 10 0 0
0 0 0 0
0 0 0
0 19
0
0 0 0 0 0 0 14 0
0 10 28 36 0 0 0
0 21 67 0 0 0
0 0 0 0 3
0 75 0 0
0 0 24
0 0
0
0 0 0 0 6 61 0
0 0 0 0 0 0
0 0 0 0 0
0 0 4 0
0 0 0
0 0
0
0 66 94 0 0 0
0 85 0 0 0
0 0 0 92
0 0 56
0 0
0
0 70 0 0 0
0 0 0 0
0 0 57
0 45
0
0 0 0 0
0 0 0
0 0
0
0 0 83
0 0
0
0 18
0
0
2490 2428 2058 2490 2542 2753 2072 2282 2433 2414 2045 2392 2210 2554 2657 2083 2638 2544 2358 2514
234.62965838509317 105.98946708606152 82.90579994316568 106.26964285714287 610.7120435120435 189.544909840562 710.6406504065042 203.52951690821254 158.89807142857143 585.8961812744421 123.25126573617953 115.69891472868217 138.58401722391085 139.19778423426868 123.62136620481371 120.97135925006891 158.68584615384617 188.04675324675324 64.58743672014262 85.49981359110306
